NAME: tsp25_26
COMMENT: 25-tsp problem (Padberg/Rinaldi)
TYPE: TSP
DIMENSION: 25
EDGE_WEIGHT_TYPE : EUC_2D
NODE_COORD_SECTION
1.00 7.76 19.95
2.00 14.99 29.38
3.00 14.39 5.84
4.00 15.36 13.53
5.00 20.01 36.94
6.00 19.34 36.80
7.00 24.58 33.62
8.00 29.84 6.65
9.00 29.63 31.35
10.00 2.92 9.83
11.00 21.65 38.56
12.00 29.78 34.73
13.00 21.40 38.39
14.00 6.36 12.55
15.00 8.75 16.87
16.00 16.10 4.66
17.00 31.02 22.28
18.00 37.08 5.27
19.00 37.75 10.52
20.00 19.33 19.41
21.00 27.75 39.73
22.00 19.20 22.53
23.00 3.25 9.43
24.00 32.55 18.54
25.00 26.77 21.97
